Å´dispatch.in⁄Ä$comment
Automatically generated Q-Chem input file by QCEngine
$end
            
$molecule
0 1
O     0.00000000     0.00000000    -0.12947694
H     0.00000000    -1.49418734     1.02744651
H     0.00000000     1.49418734     1.02744651
$end

$rem
INPUT_BOHR            TRUE
MEM_TOTAL             2744
JOBTYPE               sp
METHOD                HF
BASIS                 6-31g
$end
